{"lblp_lower": [490.52084501263096, 565.61338452725, 596.6673992294272, 647.2477032187477, 670.0392933205884, 673.9492639480071, 676.0728635576511, 676.361233661925], "cuttingPlaneBendInfo": [{"tot_cut_value": 0, "TOT_gen_cut": 0, "tot_time_opt": 0, "max_time_opt": 0}, {"tot_cut_value": 0, "TOT_gen_cut": 0, "tot_time_opt": 0, "max_time_opt": 0}, {"tot_cut_value": 0, "TOT_gen_cut": 0, "tot_time_opt": 0, "max_time_opt": 0}, {"tot_cut_value": 0, "TOT_gen_cut": 0, "tot_time_opt": 0, "max_time_opt": 0}, {"tot_cut_value": 0, "TOT_gen_cut": 0, "tot_time_opt": 0, "max_time_opt": 0}, {"tot_cut_value": 0, "TOT_gen_cut": 0, "tot_time_opt": 0, "max_time_opt": 0}, {"tot_cut_value": 0, "TOT_gen_cut": 0, "tot_time_opt": 0, "max_time_opt": 0}, {"tot_cut_value": 0, "TOT_gen_cut": 0, "tot_time_opt": 0, "max_time_opt": 0}], "time_compress": [0, 0, 0, 0, 0, 0, 0, 0], "ub_lp": [834.9750000000004, 780.2999999999998, 708.2499999999997, 692.0623401534525, 679.9439193013236, 677.0527487732268, 676.3805020137632, 676.3730504230865], "prob_sizes_at_start": [{"timeGraph": 76, "ngGraph": 52}, {"timeGraph": 159, "ngGraph": 100}, {"timeGraph": 227, "ngGraph": 153}, {"timeGraph": 345, "ngGraph": 189}, {"timeGraph": 434, "ngGraph": 207}, {"timeGraph": 549, "ngGraph": 226}, {"timeGraph": 588, "ngGraph": 244}, {"timeGraph": 637, "ngGraph": 255}], "prob_sizes_after_compress": [{"timeGraph": 19, "ngGraph": 25}, {"timeGraph": 90, "ngGraph": 35}, {"timeGraph": 144, "ngGraph": 29}, {"timeGraph": 236, "ngGraph": 32}, {"timeGraph": 286, "ngGraph": 31}, {"timeGraph": 308, "ngGraph": 36}, {"timeGraph": 340, "ngGraph": 45}, {"timeGraph": 364, "ngGraph": 41}], "prob_sizes_after_split": [{"timeGraph": 159, "ngGraph": 100}, {"timeGraph": 227, "ngGraph": 153}, {"timeGraph": 345, "ngGraph": 189}, {"timeGraph": 434, "ngGraph": 207}, {"timeGraph": 549, "ngGraph": 226}, {"timeGraph": 588, "ngGraph": 244}, {"timeGraph": 637, "ngGraph": 255}, {"timeGraph": 391, "ngGraph": 88}], "did_compress": [true, true, true, true, true, true, true, true], "lp_time_project": [1.3570079803466797, 0.8297770023345947, 1.0475139617919922, 1.30942702293396, 1.2198588848114014, 1.347726821899414, 1.1553199291229248, 1.0850598812103271], "lp_time_LB": [0.16855311393737793, 0.20687413215637207, 0.23074889183044434, 0.3061490058898926, 0.35592198371887207, 0.39925384521484375, 1.3324089050292969, 1.183223009109497], "ilp_time": [], "history_of_graphs_by_iter": [], "ROOT_LP_PRIOR_ADDING_CUTS": 676.361233661925, "OUR_ilp_objective": 707.1999999999999, "OUR_MIP_Lower_Bound": 707.1999999999999, "OUR_ilp_time": 19.90606999397278, "OUR_gurobi_MILP_str": "Gurobi Optimizer version 12.0.1 build v12.0.1rc0 (mac64[arm] - Darwin 24.5.0 24F74)\n\nCPU model: Apple M1\nThread count: 8 physical cores, 8 logical processors, using up to 8 threads\n\nNon-default parameters:\nTimeLimit  3000\n\nWLS license 2690165 - registered to Optym\nOptimize a model with 11096 rows, 17551 columns and 70279 nonzeros\nModel fingerprint: 0x9056960a\nVariable types: 102 continuous, 17449 integer (4516 binary)\nCoefficient statistics:\n  Matrix range     [1e-01, 2e+02]\n  Objective range  [4e+00, 8e+01]\n  Bounds range     [1e-01, 2e+02]\n  RHS range        [1e+00, 2e+02]\nUsing branch priorities.\nPresolve removed 6956 rows and 4915 columns\nPresolve time: 0.07s\nPresolved: 4140 rows, 12636 columns, 45730 nonzeros\nVariable types: 100 continuous, 12536 integer (12170 binary)\nFound heuristic solution: objective 2463.5000000\nFound heuristic solution: objective 2166.3000000\n\nRoot relaxation: objective 6.763612e+02, 7475 iterations, 0.57 seconds (1.03 work units)\n\n    Nodes    |    Current Node    |     Objective Bounds      |     Work\n Expl Unexpl |  Obj  Depth IntInf | Incumbent    BestBd   Gap | It/Node Time\n\n     0     0  676.36123    0  397 2166.30000  676.36123  68.8%     -    0s\nH    0     0                     930.6000000  676.36123  27.3%     -    0s\nH    0     0                     928.9000000  676.36123  27.2%     -    0s\nH    0     0                     859.3000000  676.36123  21.3%     -    0s\nH    0     0                     843.0000000  676.36123  19.8%     -    0s\nH    0     0                     833.0000000  676.36123  18.8%     -    0s\nH    0     0                     832.5000000  676.36123  18.8%     -    0s\nH    0     0                     768.5000000  676.36123  12.0%     -    0s\nH    0     0                     760.5000000  676.36123  11.1%     -    0s\nH    0     0                     734.4000000  676.36123  7.90%     -    1s\nH    0     0                     729.7000000  676.36123  7.31%     -    1s\nH    0     0                     728.9000000  676.36123  7.21%     -    1s\n     0     0  681.37262    0  408  728.90000  681.37262  6.52%     -    1s\nH    0     0                     720.4000000  681.37569  5.42%     -    1s\n     0     0  681.39194    0  411  720.40000  681.39194  5.41%     -    2s\n     0     0  681.39194    0  411  720.40000  681.39194  5.41%     -    2s\n     0     0  682.57300    0  418  720.40000  682.57300  5.25%     -    2s\n     0     0  682.57643    0  419  720.40000  682.57643  5.25%     -    2s\n     0     0  683.48533    0  473  720.40000  683.48533  5.12%     -    3s\n     0     0  683.74473    0  484  720.40000  683.74473  5.09%     -    3s\n     0     0  683.75628    0  482  720.40000  683.75628  5.09%     -    3s\n     0     0  683.75628    0  483  720.40000  683.75628  5.09%     -    3s\n     0     0  684.65169    0  499  720.40000  684.65169  4.96%     -    3s\n     0     0  684.71932    0  507  720.40000  684.71932  4.95%     -    4s\n     0     0  684.72202    0  513  720.40000  684.72202  4.95%     -    4s\n     0     0  684.72270    0  525  720.40000  684.72270  4.95%     -    4s\n     0     0  684.89913    0  512  720.40000  684.89913  4.93%     -    4s\nH    0     0                     712.3000000  684.90060  3.85%     -    4s\n     0     0  684.92233    0  519  712.30000  684.92233  3.84%     -    4s\n     0     0  684.92278    0  524  712.30000  684.92278  3.84%     -    4s\n     0     0  685.17712    0  508  712.30000  685.17712  3.81%     -    4s\n     0     0  685.17712    0  395  712.30000  685.17712  3.81%     -    5s\n     0     0  685.17712    0  449  712.30000  685.17712  3.81%     -    5s\n     0     0  685.17712    0  454  712.30000  685.17712  3.81%     -    5s\n     0     0  685.17712    0  474  712.30000  685.17712  3.81%     -    6s\n     0     0  685.17712    0  474  712.30000  685.17712  3.81%     -    6s\n     0     0  685.17712    0  474  712.30000  685.17712  3.81%     -    6s\n     0     0  685.17712    0  455  712.30000  685.17712  3.81%     -    6s\n     0     0  685.17712    0  459  712.30000  685.17712  3.81%     -    6s\n     0     0  685.20177    0  533  712.30000  685.20177  3.80%     -    6s\n     0     0  685.20931    0  529  712.30000  685.20931  3.80%     -    6s\n     0     0  685.20985    0  527  712.30000  685.20985  3.80%     -    6s\n     0     0  685.34495    0  541  712.30000  685.34495  3.78%     -    7s\n     0     0  685.35319    0  545  712.30000  685.35319  3.78%     -    7s\n     0     0  685.35505    0  540  712.30000  685.35505  3.78%     -    7s\n     0     0  685.62382    0  563  712.30000  685.62382  3.75%     -    7s\n     0     0  685.65190    0  565  712.30000  685.65190  3.74%     -    7s\n     0     0  685.65822    0  574  712.30000  685.65822  3.74%     -    7s\n     0     0  685.65822    0  575  712.30000  685.65822  3.74%     -    7s\nH    0     0                     711.3000000  685.69067  3.60%     -    7s\n     0     0  685.69067    0  566  711.30000  685.69067  3.60%     -    7s\n     0     0  685.70220    0  569  711.30000  685.70220  3.60%     -    7s\n     0     0  685.70220    0  569  711.30000  685.70220  3.60%     -    7s\n     0     0  685.72986    0  567  711.30000  685.72986  3.59%     -    7s\n     0     0  685.73539    0  577  711.30000  685.73539  3.59%     -    7s\n     0     0  685.73569    0  581  711.30000  685.73569  3.59%     -    7s\n     0     0  685.76899    0  571  711.30000  685.76899  3.59%     -    7s\n     0     0  685.77690    0  566  711.30000  685.77690  3.59%     -    8s\n     0     2  686.23846    0  564  711.30000  686.23846  3.52%     -    8s\nH   80    71                     709.8000000  689.67777  2.83%   267    9s\nH   81    71                     709.7000000  689.67777  2.82%   265    9s\nH   86    71                     708.2000000  689.67777  2.62%   260    9s\n   112    88  695.04522   12  413  708.20000  689.67777  2.62%   227   10s\nH  123    95                     707.6000000  690.32999  2.44%   223   10s\nH  124    95                     707.2000000  690.32999  2.39%   223   10s\n  1082   291  699.64158   18  313  707.20000  696.25786  1.55%   130   15s\n\nCutting planes:\n  Gomory: 5\n  Cover: 2\n  Implied bound: 123\n  MIR: 107\n  Inf proof: 2\n  Zero half: 78\n  RLT: 15\n  Relax-and-lift: 47\n  BQP: 11\n  PSD: 24\n\nExplored 2661 nodes (306756 simplex iterations) in 19.91 seconds (31.15 work units)\nThread count was 8 (of 8 available processors)\n\nSolution count 10: 707.2 707.6 708.2 ... 729.7\n\nOptimal solution found (tolerance 1.00e-04)\nBest objective 7.072000000000e+02, best bound 7.072000000000e+02, gap 0.0000%\n", "jy_opt": {"ParetoEps": 1e-05, "turn_off_time_windows": false, "deactivate_time_graph": false, "deactivate_demand_graph": false, "epsilon": 0.0001, "weight_slack_projector": 1e-05, "weight_compress": 0.01, "num_cust_use": 50, "dem_step_sz": 1, "time_step_sz": 1, "use_compression": 1, "max_iterations_loop_compress_project": 50, "do_round_dist_times": 1, "my_shift_bet_time_win": 0.0001, "num_terms_per_bin_init_construct": 100, "allOneBig_init": 0, "min_inc_2_compress": 1e-05, "save_graph_each_iter": 0, "use_Xpress": 0, "use_ineq": false, "xpress_file_loc": "/Users/julian/Documents/FICO_Xpress_Config/xpauth.xpr", "run_baseline": 0, "verbose": 0, "use_NG_graph": 1, "num_NG": 9, "in_demo_mode": 0, "threshold_split": 0.1, "offset_cost_edge_project": 0, "use_classic_compress": 1, "use_classic_compress_last": 1, "num_thresh_split_projector": 1000, "lplb_solver": 4, "compresss_solver": 0, "proj_solver": 4, "use_julians_custom_lp_solver": 0, "do_ilp": 1, "roundingDiscretization_num_digits_keep": 3, "doExrtraRemovalEdgesLB": 0, "use_gurobi": 1, "max_ILP_time": 3000, "use_fancy_ng_graph": 1, "use_dem_graph": 0, "use_time_graph": 1, "num_multiplys_demand": 0, "DEBUG_ALLOW_DUMB_EDGES": 0, "add_all_ng_split_at_end": 0, "do_split_based_init": 0, "think_compress": [0], "use_delta_in_milp": 1, "use_delta_in_lp": 1, "turn_off_non_active_fg_project": 0, "use_new_valid_ineq": 0, "digit_mult_use": 10, "use_branch_on_g": true, "LAB_MP_ON": 0, "LAB_MP_neigh_use_power": 9, "LAB_MP_num_ineq_use": 10, "do_remove_actions_from_incumbant": true, "ub_use_remove": 707.2, "use_packing_in_construction": 1, "maxVarsAdd_in_ITER": 10, "use_ng_size_init": 0, "do_presolve": 0, "use_diving_ineq": 1, "BEND_MIN_LP_OBJECTIVE_CUT": 0.1, "BEND_USE_RAND": 0, "BEND_MAX_SIZE_CHOOSE_K": 230, "BEND_VAL_STOP_ADDING_CUTS": 100000000, "BEND_MY_SIZES_USE": [9], "NUMERICAL_BEND_OFFSET_COST_CUT": 0.0001, "NUMERICAL_BEND_EPSILON_MULT_PARETO_OBJ": 0.001, "NO_PARETO_NUMERICAL_BEND_OFFSET_COST_CUT": 0, "NO_PARETO_BEND_VAL_STOP_ADDING_CUTS": 1, "NO_PARETO_EPSILON_MAX_VAL_CON": 0.01, "BENDERS_NEIGH_SZ_USE": 9, "Actions_of_given_sol": [], "all_vars_binary": 1, "restore_after_each_step": 1, "use_ng": 1, "compress_solver": 1, "DEBUG_NG_turn_off_CLEAN": false, "max_nodes_split": Infinity}, "output_ilp_solution": {"delta_capRem_0": 18.4, "delta_timeRem_0": 201.2, "delta_capRem_1": 19.1, "delta_timeRem_1": 145.6, "delta_capRem_2": 7.5, "delta_timeRem_2": 155.2, "delta_capRem_3": 2.8, "delta_timeRem_3": 92.0, "delta_capRem_4": 2.6, "delta_timeRem_4": 32.6, "delta_capRem_5": 0.3, "delta_timeRem_5": 99.0, "delta_capRem_6": 4.5, "delta_timeRem_6": 185.3, "delta_capRem_7": 2.4, "delta_timeRem_7": 140.5, "delta_capRem_8": 5.1, "delta_timeRem_8": 119.8, "delta_capRem_9": 4.3, "delta_timeRem_9": 110.1, "delta_capRem_10": 10.3, "delta_timeRem_10": 161.2, "delta_capRem_11": 18.4, "delta_timeRem_11": 204.5, "delta_capRem_12": 2.3, "delta_timeRem_12": 50.0, "delta_capRem_13": 5.0, "delta_timeRem_13": 107.9, "delta_capRem_14": 9.6, "delta_timeRem_14": 180.0, "delta_capRem_15": 19.2, "delta_timeRem_15": 168.0, "delta_capRem_16": 2.8, "delta_timeRem_16": 52.6, "delta_capRem_17": 1.5, "delta_timeRem_17": 120.1, "delta_capRem_18": 16.4, "delta_timeRem_18": 178.2, "delta_capRem_19": 7.5, "delta_timeRem_19": 151.0, "delta_capRem_20": 16.1, "delta_timeRem_20": 89.2, "delta_capRem_21": 17.9, "delta_timeRem_21": 109.2, "delta_capRem_22": 8.8, "delta_timeRem_22": 143.0, "delta_capRem_23": 0.3, "delta_timeRem_23": 40.0, "delta_capRem_24": 0.9, "delta_timeRem_24": 72.0, "delta_capRem_25": 15.0, "delta_timeRem_25": 69.2, "delta_capRem_26": 20.0, "delta_timeRem_26": 222.0, "delta_capRem_27": 20.0, "delta_timeRem_27": 223.7, "delta_capRem_28": 16.5, "delta_timeRem_28": 178.9, "delta_capRem_29": 17.4, "delta_timeRem_29": 180.2, "delta_capRem_30": 2.7, "delta_timeRem_30": 62.0, "delta_capRem_31": 6.6, "delta_timeRem_31": 130.3, "delta_capRem_32": 6.2, "delta_timeRem_32": 138.0, "delta_capRem_33": 2.7, "delta_timeRem_33": 80.3, "delta_capRem_34": 3.5, "delta_timeRem_34": 100.4, "delta_capRem_35": 6.1, "delta_timeRem_35": 118.0, "delta_capRem_36": 20.0, "delta_timeRem_36": 188.0, "delta_capRem_37": 6.6, "delta_timeRem_37": 129.0, "delta_capRem_38": 5.9, "delta_timeRem_38": 124.4, "delta_capRem_39": 20.0, "delta_timeRem_39": 165.0, "delta_capRem_40": 18.4, "delta_timeRem_40": 123.4, "delta_capRem_41": 20.0, "delta_timeRem_41": 204.6, "delta_capRem_42": 3.0, "delta_timeRem_42": 83.0, "delta_capRem_43": 17.3, "delta_timeRem_43": 152.0, "delta_capRem_44": 4.0, "delta_timeRem_44": 156.9, "delta_capRem_45": 2.9, "delta_timeRem_45": 80.8, "delta_capRem_46": 5.6, "delta_timeRem_46": 100.8, "delta_capRem_47": 20.0, "delta_timeRem_47": 196.5, "delta_capRem_48": 9.1, "delta_timeRem_48": 136.9, "delta_capRem_49": 1.3, "delta_timeRem_49": 50.7, "act_0_29": 1, "act_1_40": 1, "act_2_32": 1, "act_3_24": 1, "act_4_51": 1, "act_5_51": 1, "act_6_44": 1, "act_7_17": 1, "act_8_34": 1, "act_9_30": 1, "act_10_48": 1, "act_11_28": 1, "act_12_51": 1, "act_13_42": 1, "act_14_22": 1, "act_15_43": 1, "act_16_4": 1, "act_17_5": 1, "act_18_10": 1, "act_19_31": 1, "act_20_25": 1, "act_21_20": 1, "act_22_38": 1, "act_23_51": 1, "act_24_23": 1, "act_25_51": 1, "act_26_0": 1, "act_27_11": 1, "act_28_2": 1, "act_29_19": 1, "act_30_51": 1, "act_31_9": 1, "act_32_8": 1, "act_33_49": 1, "act_34_33": 1, "act_35_46": 1, "act_36_15": 1, "act_37_13": 1, "act_38_3": 1, "act_39_1": 1, "act_40_21": 1, "act_41_14": 1, "act_42_12": 1, "act_43_37": 1, "act_44_7": 1, "act_45_16": 1, "act_46_45": 1, "act_47_18": 1, "act_48_35": 1, "act_49_51": 1, "act_50_6": 1, "act_50_26": 1, "act_50_27": 1, "act_50_36": 1, "act_50_39": 1, "act_50_41": 1, "act_50_47": 1}, "Actions_of_given_sol": "none just used source and sink terms", "actions_used": ["act_0_29", "act_1_40", "act_2_32", "act_3_24", "act_4_51", "act_5_51", "act_6_44", "act_7_17", "act_8_34", "act_9_30", "act_10_48", "act_11_28", "act_12_51", "act_13_42", "act_14_22", "act_15_43", "act_16_4", "act_17_5", "act_18_10", "act_19_31", "act_20_25", "act_21_20", "act_22_38", "act_23_51", "act_24_23", "act_25_51", "act_26_0", "act_27_11", "act_28_2", "act_29_19", "act_30_51", "act_31_9", "act_32_8", "act_33_49", "act_34_33", "act_35_46", "act_36_15", "act_37_13", "act_38_3", "act_39_1", "act_40_21", "act_41_14", "act_42_12", "act_43_37", "act_44_7", "act_45_16", "act_46_45", "act_47_18", "act_48_35", "act_49_51", "act_50_6", "act_50_26", "act_50_27", "act_50_36", "act_50_39", "act_50_41", "act_50_47"], "init_default_solution_is_empty": false, "objective_of_initial_sol": 2620.8000000000006, "my_paths": "[[50, 6, 44, 7, 17, 5, 51], [50, 26, 0, 29, 19, 31, 9, 30, 51], [50, 27, 11, 28, 2, 32, 8, 34, 33, 49, 51], [50, 36, 15, 43, 37, 13, 42, 12, 51], [50, 39, 1, 40, 21, 20, 25, 51], [50, 41, 14, 22, 38, 3, 24, 23, 51], [50, 47, 18, 10, 48, 35, 46, 45, 16, 4, 51]]"}